(set-logic QF_NRA)
(set-info :source |Benchmarks generated from hycomp (https://es-static.fbk.eu/tools/hycomp/). BMC instances of non-linear hybrid automata taken from: Alessandro Cimatti, Sergio Mover, Stefano Tonetta, A quantifier-free SMT encoding of non-linear hybrid automata, FMCAD 2012 and Alessandro Cimatti, Sergio Mover, Stefano Tonetta, Quantier-free encoding of invariants for Hybrid Systems, Formal Methods in System Design. This instance solves a BMC problem of depth 1 and uses the quantifier free encoding with equivalences encoding. Contacts: Sergio Mover (mover@fbk.eu), Stefano Tonetta (tonettas@fbk.eu), Alessandro Cimatti (cimatti@fbk.eu).|)
(set-info :smt-lib-version 2.0)
(set-info :category "industrial")
(set-info :status unsat)
;; MathSAT API call trace
;; generated on Mon Mar 19 10:42:09 2012
(declare-fun b.y__AT1 () Real)
(declare-fun b.x__AT0 () Real)
(declare-fun b.speed_y__AT0 () Real)
(declare-fun b.event_is_timed__AT0 () Bool)
(declare-fun b.speed_x__AT0 () Real)
(declare-fun b.event_is_timed__AT1 () Bool)
(declare-fun b.time__AT0 () Real)
(declare-fun b.speed_y__AT1 () Real)
(declare-fun b.y__AT0 () Real)
(declare-fun b.counter.0__AT0 () Bool)
(declare-fun b.counter.1__AT0 () Bool)
(declare-fun b.time__AT1 () Real)
(declare-fun b.bool_atom__AT0 () Bool)
(declare-fun b.counter.2__AT0 () Bool)
(declare-fun b.delta__AT1 () Real)
(declare-fun b.EVENT.0__AT1 () Bool)
(declare-fun b.delta__AT0 () Real)
(declare-fun b.speed_x__AT1 () Real)
(declare-fun b.EVENT.0__AT0 () Bool)
(declare-fun b.x__AT1 () Real)
(declare-fun b.counter.0__AT1 () Bool)
(declare-fun b.EVENT.1__AT0 () Bool)
(declare-fun b.counter.1__AT1 () Bool)
(declare-fun b.counter.2__AT1 () Bool)
(declare-fun b.counter.3__AT1 () Bool)
(declare-fun b.bool_atom__AT1 () Bool)
(declare-fun b.EVENT.1__AT1 () Bool)
(declare-fun b.speed_loss__AT0 () Real)
(declare-fun b.counter.3__AT0 () Bool)
(assert (let ((.def_334 (* (- 1.0) b.speed_x__AT1)))
(let ((.def_335 (* b.speed_x__AT1 .def_334)))
(let ((.def_336 (* (- 1.0) .def_335)))
(let ((.def_367 (* 2.0 .def_336)))
(let ((.def_368 (* b.delta__AT1 .def_367)))
(let ((.def_369 (* 5.0 .def_368)))
(let ((.def_277 (* (- 1.0) b.x__AT1)))
(let ((.def_347 (* b.speed_x__AT1 .def_277)))
(let ((.def_372 (* (- 5.0) .def_347)))
(let ((.def_378 (+ .def_372 .def_369)))
(let ((.def_342 (* b.x__AT1 .def_334)))
(let ((.def_370 (* (- 5.0) .def_342)))
(let ((.def_379 (+ .def_370 .def_378)))
(let ((.def_374 (* (- 49.0) b.delta__AT1)))
(let ((.def_380 (+ .def_374 .def_379)))
(let ((.def_376 (* 5.0 b.speed_y__AT1)))
(let ((.def_381 (+ .def_376 .def_380)))
(let ((.def_385 (<= .def_381 0.0 )))
(let ((.def_348 (* (- 1.0) .def_347)))
(let ((.def_343 (* (- 1.0) .def_342)))
(let ((.def_364 (+ .def_343 .def_348)))
(let ((.def_365 (+ b.speed_y__AT1 .def_364)))
(let ((.def_384 (<= .def_365 0.0 )))
(let ((.def_386 (and .def_384 .def_385)))
(let ((.def_382 (<= 0.0 .def_381)))
(let ((.def_366 (<= 0.0 .def_365)))
(let ((.def_383 (and .def_366 .def_382)))
(let ((.def_387 (or .def_383 .def_386)))
(let ((.def_349 (* b.delta__AT1 .def_348)))
(let ((.def_350 (* 10.0 .def_349)))
(let ((.def_344 (* b.delta__AT1 .def_343)))
(let ((.def_345 (* 10.0 .def_344)))
(let ((.def_356 (+ .def_345 .def_350)))
(let ((.def_333 (* b.delta__AT1 b.delta__AT1)))
(let ((.def_337 (* .def_333 .def_336)))
(let ((.def_338 (* 10.0 .def_337)))
(let ((.def_357 (+ .def_338 .def_356)))
(let ((.def_340 (* (- 49.0) .def_333)))
(let ((.def_358 (+ .def_340 .def_357)))
(let ((.def_331 (* b.speed_y__AT1 b.delta__AT1)))
(let ((.def_332 (* 10.0 .def_331)))
(let ((.def_359 (+ .def_332 .def_358)))
(let ((.def_323 (* b.x__AT1 .def_277)))
(let ((.def_352 (* (- 10.0) .def_323)))
(let ((.def_360 (+ .def_352 .def_359)))
(let ((.def_354 (* 10.0 b.y__AT1)))
(let ((.def_361 (+ .def_354 .def_360)))
(let ((.def_362 (<= 0.0 .def_361)))
(let ((.def_324 (<= .def_323 b.y__AT1)))
(let ((.def_363 (and .def_324 .def_362)))
(let ((.def_388 (and .def_363 .def_387)))
(let ((.def_65 (<= b.speed_loss__AT0 (/ 1 2))))
(let ((.def_62 (<= (/ 1 10) b.speed_loss__AT0)))
(let ((.def_66 (and .def_62 .def_65)))
(let ((.def_389 (and .def_66 .def_388)))
(let ((.def_325 (and .def_66 .def_324)))
(let ((.def_320 (not b.EVENT.0__AT1)))
(let ((.def_318 (not b.EVENT.1__AT1)))
(let ((.def_321 (or .def_318 .def_320)))
(let ((.def_6 (not b.counter.0__AT1)))
(let ((.def_4 (not b.counter.1__AT1)))
(let ((.def_311 (or .def_4 .def_6)))
(let ((.def_315 (or b.counter.3__AT1 .def_311)))
(let ((.def_312 (or b.counter.2__AT1 .def_311)))
(let ((.def_9 (not b.counter.2__AT1)))
(let ((.def_310 (or .def_6 .def_9)))
(let ((.def_313 (and .def_310 .def_312)))
(let ((.def_242 (not b.counter.3__AT1)))
(let ((.def_314 (or .def_242 .def_313)))
(let ((.def_316 (and .def_314 .def_315)))
(let ((.def_322 (and .def_316 .def_321)))
(let ((.def_326 (and .def_322 .def_325)))
(let ((.def_305 (<= 0.0 b.delta__AT0)))
(let ((.def_53 (not b.EVENT.0__AT0)))
(let ((.def_51 (not b.EVENT.1__AT0)))
(let ((.def_137 (and .def_51 .def_53)))
(let ((.def_139 (not .def_137)))
(let ((.def_306 (or .def_139 .def_305)))
(let ((.def_307 (or b.EVENT.1__AT0 .def_306)))
(let ((.def_179 (= b.bool_atom__AT0 b.bool_atom__AT1)))
(let ((.def_174 (= b.counter.0__AT1 b.counter.0__AT0)))
(let ((.def_172 (= b.counter.1__AT1 b.counter.1__AT0)))
(let ((.def_170 (= b.counter.2__AT1 b.counter.2__AT0)))
(let ((.def_169 (= b.counter.3__AT0 b.counter.3__AT1)))
(let ((.def_171 (and .def_169 .def_170)))
(let ((.def_173 (and .def_171 .def_172)))
(let ((.def_175 (and .def_173 .def_174)))
(let ((.def_301 (and .def_175 .def_179)))
(let ((.def_302 (or .def_139 .def_301)))
(let ((.def_303 (or b.EVENT.1__AT0 .def_302)))
(let ((.def_290 (* (- 10.0) b.y__AT1)))
(let ((.def_74 (* b.delta__AT0 b.delta__AT0)))
(let ((.def_83 (* (- 49.0) .def_74)))
(let ((.def_293 (+ .def_83 .def_290)))
(let ((.def_72 (* b.speed_y__AT0 b.delta__AT0)))
(let ((.def_73 (* 10.0 .def_72)))
(let ((.def_294 (+ .def_73 .def_293)))
(let ((.def_98 (* 10.0 b.y__AT0)))
(let ((.def_295 (+ .def_98 .def_294)))
(let ((.def_296 (= .def_295 0.0 )))
(let ((.def_284 (* (- 5.0) b.speed_y__AT1)))
(let ((.def_120 (* (- 49.0) b.delta__AT0)))
(let ((.def_285 (+ .def_120 .def_284)))
(let ((.def_122 (* 5.0 b.speed_y__AT0)))
(let ((.def_286 (+ .def_122 .def_285)))
(let ((.def_287 (= .def_286 0.0 )))
(let ((.def_276 (* b.speed_x__AT0 b.delta__AT0)))
(let ((.def_280 (+ .def_277 .def_276)))
(let ((.def_281 (+ b.x__AT0 .def_280)))
(let ((.def_282 (= .def_281 0.0 )))
(let ((.def_163 (= b.speed_x__AT0 b.speed_x__AT1)))
(let ((.def_283 (and .def_163 .def_282)))
(let ((.def_288 (and .def_283 .def_287)))
(let ((.def_297 (and .def_288 .def_296)))
(let ((.def_298 (or .def_139 .def_297)))
(let ((.def_160 (= b.y__AT0 b.y__AT1)))
(let ((.def_157 (= b.x__AT0 b.x__AT1)))
(let ((.def_270 (and .def_157 .def_160)))
(let ((.def_271 (and .def_163 .def_270)))
(let ((.def_166 (= b.speed_y__AT0 b.speed_y__AT1)))
(let ((.def_272 (and .def_166 .def_271)))
(let ((.def_267 (= b.delta__AT0 0.0 )))
(let ((.def_268 (and .def_137 .def_267)))
(let ((.def_269 (not .def_268)))
(let ((.def_273 (or .def_269 .def_272)))
(let ((.def_274 (or b.EVENT.1__AT0 .def_273)))
(let ((.def_259 (and .def_163 .def_166)))
(let ((.def_260 (and .def_175 .def_259)))
(let ((.def_261 (or b.bool_atom__AT0 .def_260)))
(let ((.def_234 (or .def_6 b.counter.0__AT0)))
(let ((.def_34 (not b.counter.0__AT0)))
(let ((.def_233 (or b.counter.0__AT1 .def_34)))
(let ((.def_235 (and .def_233 .def_234)))
(let ((.def_236 (and .def_4 .def_235)))
(let ((.def_237 (or b.counter.1__AT0 .def_236)))
(let ((.def_32 (not b.counter.1__AT0)))
(let ((.def_232 (or b.counter.1__AT1 .def_32)))
(let ((.def_238 (and .def_232 .def_237)))
(let ((.def_250 (and .def_9 .def_238)))
(let ((.def_251 (or b.counter.2__AT0 .def_250)))
(let ((.def_245 (and .def_4 .def_34)))
(let ((.def_246 (or b.counter.1__AT0 .def_245)))
(let ((.def_247 (and .def_232 .def_246)))
(let ((.def_248 (and b.counter.2__AT1 .def_247)))
(let ((.def_37 (not b.counter.2__AT0)))
(let ((.def_249 (or .def_37 .def_248)))
(let ((.def_252 (and .def_249 .def_251)))
(let ((.def_253 (and b.counter.3__AT1 .def_252)))
(let ((.def_254 (or b.counter.3__AT0 .def_253)))
(let ((.def_239 (and b.counter.2__AT1 .def_238)))
(let ((.def_240 (or b.counter.2__AT0 .def_239)))
(let ((.def_228 (or b.counter.1__AT1 b.counter.1__AT0)))
(let ((.def_226 (and .def_4 b.counter.0__AT1)))
(let ((.def_227 (or .def_32 .def_226)))
(let ((.def_229 (and .def_227 .def_228)))
(let ((.def_230 (and .def_9 .def_229)))
(let ((.def_231 (or .def_37 .def_230)))
(let ((.def_241 (and .def_231 .def_240)))
(let ((.def_243 (and .def_241 .def_242)))
(let ((.def_40 (not b.counter.3__AT0)))
(let ((.def_244 (or .def_40 .def_243)))
(let ((.def_255 (and .def_244 .def_254)))
(let ((.def_217 (* b.speed_y__AT0 b.speed_y__AT0)))
(let ((.def_216 (* b.speed_x__AT0 b.speed_x__AT0)))
(let ((.def_218 (+ .def_216 .def_217)))
(let ((.def_198 (* (- 1.0) b.speed_loss__AT0)))
(let ((.def_199 (+ 1.0 .def_198)))
(let ((.def_215 (* .def_199 .def_199)))
(let ((.def_219 (* .def_215 .def_218)))
(let ((.def_221 (* (- 1.0) .def_219)))
(let ((.def_212 (* b.speed_y__AT1 b.speed_y__AT1)))
(let ((.def_222 (+ .def_212 .def_221)))
(let ((.def_210 (* b.speed_x__AT1 b.speed_x__AT1)))
(let ((.def_223 (+ .def_210 .def_222)))
(let ((.def_224 (= .def_223 0.0 )))
(let ((.def_203 (* b.speed_y__AT0 .def_199)))
(let ((.def_186 (* (- 2.0) b.x__AT0)))
(let ((.def_187 (* (- 1.0) .def_186)))
(let ((.def_200 (* .def_187 .def_199)))
(let ((.def_201 (* b.speed_x__AT0 .def_200)))
(let ((.def_206 (+ .def_201 .def_203)))
(let ((.def_195 (* (- 2.0) b.x__AT1)))
(let ((.def_196 (* (- 1.0) .def_195)))
(let ((.def_197 (* b.speed_x__AT1 .def_196)))
(let ((.def_207 (+ .def_197 .def_206)))
(let ((.def_208 (+ b.speed_y__AT1 .def_207)))
(let ((.def_209 (= .def_208 0.0 )))
(let ((.def_225 (and .def_209 .def_224)))
(let ((.def_256 (and .def_225 .def_255)))
(let ((.def_194 (not b.bool_atom__AT0)))
(let ((.def_257 (or .def_194 .def_256)))
(let ((.def_188 (* b.speed_x__AT0 .def_187)))
(let ((.def_189 (+ b.speed_y__AT0 .def_188)))
(let ((.def_190 (<= 0.0 .def_189)))
(let ((.def_191 (not .def_190)))
(let ((.def_57 (* (- 1.0) b.x__AT0)))
(let ((.def_58 (* b.x__AT0 .def_57)))
(let ((.def_184 (= b.y__AT0 .def_58)))
(let ((.def_192 (and .def_184 .def_191)))
(let ((.def_193 (= b.bool_atom__AT0 .def_192)))
(let ((.def_258 (and .def_193 .def_257)))
(let ((.def_262 (and .def_258 .def_261)))
(let ((.def_263 (and .def_157 .def_262)))
(let ((.def_264 (and .def_160 .def_263)))
(let ((.def_265 (or .def_137 .def_264)))
(let ((.def_266 (or b.EVENT.1__AT0 .def_265)))
(let ((.def_275 (and .def_266 .def_274)))
(let ((.def_299 (and .def_275 .def_298)))
(let ((.def_144 (= b.time__AT0 b.time__AT1)))
(let ((.def_158 (and .def_144 .def_157)))
(let ((.def_161 (and .def_158 .def_160)))
(let ((.def_164 (and .def_161 .def_163)))
(let ((.def_167 (and .def_164 .def_166)))
(let ((.def_176 (and .def_167 .def_175)))
(let ((.def_180 (and .def_176 .def_179)))
(let ((.def_181 (or .def_51 .def_180)))
(let ((.def_147 (* (- 1.0) b.time__AT1)))
(let ((.def_150 (+ b.delta__AT0 .def_147)))
(let ((.def_151 (+ b.time__AT0 .def_150)))
(let ((.def_152 (= .def_151 0.0 )))
(let ((.def_153 (or .def_139 .def_152)))
(let ((.def_154 (or b.EVENT.1__AT0 .def_153)))
(let ((.def_145 (or .def_137 .def_144)))
(let ((.def_146 (or b.EVENT.1__AT0 .def_145)))
(let ((.def_155 (and .def_146 .def_154)))
(let ((.def_182 (and .def_155 .def_181)))
(let ((.def_141 (= .def_139 b.event_is_timed__AT1)))
(let ((.def_138 (= b.event_is_timed__AT0 .def_137)))
(let ((.def_142 (and .def_138 .def_141)))
(let ((.def_183 (and .def_142 .def_182)))
(let ((.def_300 (and .def_183 .def_299)))
(let ((.def_304 (and .def_300 .def_303)))
(let ((.def_308 (and .def_304 .def_307)))
(let ((.def_309 (and .def_51 .def_308)))
(let ((.def_327 (and .def_309 .def_326)))
(let ((.def_35 (and .def_32 .def_34)))
(let ((.def_38 (and .def_35 .def_37)))
(let ((.def_328 (and .def_38 .def_327)))
(let ((.def_75 (* (- 1.0) b.speed_x__AT0)))
(let ((.def_76 (* b.speed_x__AT0 .def_75)))
(let ((.def_77 (* (- 1.0) .def_76)))
(let ((.def_111 (* 2.0 .def_77)))
(let ((.def_112 (* b.delta__AT0 .def_111)))
(let ((.def_114 (* 5.0 .def_112)))
(let ((.def_90 (* b.speed_x__AT0 .def_57)))
(let ((.def_118 (* (- 5.0) .def_90)))
(let ((.def_124 (+ .def_118 .def_114)))
(let ((.def_85 (* b.x__AT0 .def_75)))
(let ((.def_116 (* (- 5.0) .def_85)))
(let ((.def_125 (+ .def_116 .def_124)))
(let ((.def_126 (+ .def_120 .def_125)))
(let ((.def_127 (+ .def_122 .def_126)))
(let ((.def_131 (<= .def_127 0.0 )))
(let ((.def_91 (* (- 1.0) .def_90)))
(let ((.def_86 (* (- 1.0) .def_85)))
(let ((.def_108 (+ .def_86 .def_91)))
(let ((.def_109 (+ b.speed_y__AT0 .def_108)))
(let ((.def_130 (<= .def_109 0.0 )))
(let ((.def_132 (and .def_130 .def_131)))
(let ((.def_128 (<= 0.0 .def_127)))
(let ((.def_110 (<= 0.0 .def_109)))
(let ((.def_129 (and .def_110 .def_128)))
(let ((.def_133 (or .def_129 .def_132)))
(let ((.def_92 (* b.delta__AT0 .def_91)))
(let ((.def_93 (* 10.0 .def_92)))
(let ((.def_87 (* b.delta__AT0 .def_86)))
(let ((.def_88 (* 10.0 .def_87)))
(let ((.def_100 (+ .def_88 .def_93)))
(let ((.def_78 (* .def_74 .def_77)))
(let ((.def_79 (* 10.0 .def_78)))
(let ((.def_101 (+ .def_79 .def_100)))
(let ((.def_102 (+ .def_83 .def_101)))
(let ((.def_103 (+ .def_73 .def_102)))
(let ((.def_96 (* (- 10.0) .def_58)))
(let ((.def_104 (+ .def_96 .def_103)))
(let ((.def_105 (+ .def_98 .def_104)))
(let ((.def_106 (<= 0.0 .def_105)))
(let ((.def_59 (<= .def_58 b.y__AT0)))
(let ((.def_107 (and .def_59 .def_106)))
(let ((.def_134 (and .def_107 .def_133)))
(let ((.def_135 (and .def_66 .def_134)))
(let ((.def_67 (and .def_59 .def_66)))
(let ((.def_54 (or .def_51 .def_53)))
(let ((.def_44 (or .def_32 .def_34)))
(let ((.def_48 (or b.counter.3__AT0 .def_44)))
(let ((.def_45 (or b.counter.2__AT0 .def_44)))
(let ((.def_43 (or .def_34 .def_37)))
(let ((.def_46 (and .def_43 .def_45)))
(let ((.def_47 (or .def_40 .def_46)))
(let ((.def_49 (and .def_47 .def_48)))
(let ((.def_55 (and .def_49 .def_54)))
(let ((.def_68 (and .def_55 .def_67)))
(let ((.def_41 (and .def_38 .def_40)))
(let ((.def_29 (= b.speed_y__AT0 1.0 )))
(let ((.def_26 (= b.speed_x__AT0 1.0 )))
(let ((.def_22 (= b.y__AT0 10.0 )))
(let ((.def_18 (= b.x__AT0 0.0 )))
(let ((.def_14 (= b.time__AT0 0.0 )))
(let ((.def_16 (and .def_14 b.event_is_timed__AT0)))
(let ((.def_19 (and .def_16 .def_18)))
(let ((.def_23 (and .def_19 .def_22)))
(let ((.def_27 (and .def_23 .def_26)))
(let ((.def_30 (and .def_27 .def_29)))
(let ((.def_42 (and .def_30 .def_41)))
(let ((.def_69 (and .def_42 .def_68)))
(let ((.def_7 (and .def_4 .def_6)))
(let ((.def_10 (and .def_7 .def_9)))
(let ((.def_11 (not .def_10)))
(let ((.def_70 (and .def_11 .def_69)))
(let ((.def_136 (and .def_70 .def_135)))
(let ((.def_329 (and .def_136 .def_328)))
(let ((.def_390 (and .def_329 .def_389)))
.def_390)))))))))))))))))))))))))))))))))))))))))))))))))))))))))))))))))))))))))))))))))))))))))))))))))))))))))))))))))))))))))))))))))))))))))))))))))))))))))))))))))))))))))))))))))))))))))))))))))))))))))))))))))))))))))))))))))))))))))))))))))))))))))))))))))))))))))))))))))))))))))))))))))))))))))))))))))))))))))
(check-sat)
(exit)
